10
92
19
66
51
9
78
82
7
26
61
32
24
46
12
40
53
1
85
27
15
13
79
64
20
42
55
67
65
31
47
6
54
75
22
8
17
25
90
34
58
98
88
28
39
38
71
56
43
5
86
50
72
83
62
2
68
30
77
80
35
23
91
95
94
76
70
21
89
41
59
73
3
69
74
57
36
100
33
45
81
97
96
87
52
11
84
48
44
63
16
37
29
18
49
93
4
60
14
99
10
